
Gurobi 7.0.2 (win64) logging started 04/06/17 05:25:08

Changed value of parameter LogFile to log_prov_code_23.log
   Prev: gurobi.log  Default: 
Changed value of parameter LazyConstraints to 1
   Prev: 0  Min: 0  Max: 1  Default: 0
Optimize a model with 2302 rows, 51515 columns and 103464 nonzeros
Variable types: 0 continuous, 51515 integer (51515 binary)
Coefficient statistics:
  Matrix range     [1e+00, 1e+05]
  Objective range  [3e-01, 3e+02]
  Bounds range     [1e+00, 1e+00]
  RHS range        [1e+00, 7e+00]
Found heuristic solution: objective 157226
Presolve removed 1098 rows and 20942 columns
Presolve time: 1.21s
Presolved: 1204 rows, 30573 columns, 61224 nonzeros

MIP start did not produce a new incumbent solution
MIP start violates constraint R0 by 339999.000000000

Variable types: 0 continuous, 30573 integer (30573 binary)

Root simplex log...

Iteration    Objective       Primal Inf.    Dual Inf.      Time
       0   -4.6737895e+05   7.222344e+02   0.000000e+00     10s
     821    4.3304343e+04   0.000000e+00   0.000000e+00     10s

Root relaxation: objective 4.330434e+04, 821 iterations, 0.03 seconds

    Nodes    |    Current Node    |     Objective Bounds      |     Work
 Expl Unexpl |  Obj  Depth IntInf | Incumbent    BestBd   Gap | It/Node Time

     0     0 43304.3426    0   14 157225.504 43304.3426  72.5%     -    9s
H    0     0                    43665.813405 43304.3426  0.83%     -   18s
     0     0 43310.3222    0   16 43665.8134 43310.3222  0.81%     -   18s
     0     0     cutoff    0      43665.8134 43665.8134  0.00%     -   18s

Cutting planes:
  Cover: 11
  Clique: 1127
  MIR: 12

Explored 0 nodes (1079 simplex iterations) in 18.53 seconds
Thread count was 4 (of 4 available processors)

Solution count 2: 43665.8 157226 
Pool objective bound 43665.8

Optimal solution found (tolerance 1.00e-04)
Best objective 4.366581340538e+04, best bound 4.366581340538e+04, gap 0.0000%

Gurobi 7.0.2 (win64) logging started 04/06/17 05:26:43

Changed value of parameter LogFile to log_prov_code_23.log
   Prev: gurobi.log  Default: 
Changed value of parameter LazyConstraints to 1
   Prev: 0  Min: 0  Max: 1  Default: 0
Optimize a model with 2302 rows, 51515 columns and 103464 nonzeros
Variable types: 0 continuous, 51515 integer (51515 binary)
Coefficient statistics:
  Matrix range     [1e+00, 1e+05]
  Objective range  [3e-01, 3e+02]
  Bounds range     [1e+00, 1e+00]
  RHS range        [1e+00, 7e+00]
Found heuristic solution: objective 157226
Presolve removed 1098 rows and 20942 columns
Presolve time: 1.14s
Presolved: 1204 rows, 30573 columns, 61224 nonzeros

MIP start did not produce a new incumbent solution
MIP start violates constraint R0 by 339999.000000000

Variable types: 0 continuous, 30573 integer (30573 binary)

Root simplex log...

Iteration    Objective       Primal Inf.    Dual Inf.      Time
       0   -4.6737895e+05   7.222344e+02   0.000000e+00     10s
     821    4.3304343e+04   0.000000e+00   0.000000e+00     10s

Root relaxation: objective 4.330434e+04, 821 iterations, 0.02 seconds

    Nodes    |    Current Node    |     Objective Bounds      |     Work
 Expl Unexpl |  Obj  Depth IntInf | Incumbent    BestBd   Gap | It/Node Time

     0     0 43304.3426    0   14 157225.504 43304.3426  72.5%     -   10s
H    0     0                    43665.813405 43304.3426  0.83%     -   18s
     0     0 43310.3222    0   16 43665.8134 43310.3222  0.81%     -   18s
     0     0     cutoff    0      43665.8134 43665.8134  0.00%     -   18s

Cutting planes:
  Cover: 11
  Clique: 1127
  MIR: 12

Explored 0 nodes (1079 simplex iterations) in 18.95 seconds
Thread count was 4 (of 4 available processors)

Solution count 2: 43665.8 157226 
Pool objective bound 43665.8

Optimal solution found (tolerance 1.00e-04)
Best objective 4.366581340538e+04, best bound 4.366581340538e+04, gap 0.0000%

Gurobi 7.0.2 (win64) logging started 04/06/17 05:54:27

Changed value of parameter LogFile to log_prov_code_23.log
   Prev: gurobi.log  Default: 
Changed value of parameter LazyConstraints to 1
   Prev: 0  Min: 0  Max: 1  Default: 0
Optimize a model with 2302 rows, 51515 columns and 103464 nonzeros
Variable types: 0 continuous, 51515 integer (51515 binary)
Coefficient statistics:
  Matrix range     [1e+00, 1e+05]
  Objective range  [3e-01, 3e+02]
  Bounds range     [1e+00, 1e+00]
  RHS range        [1e+00, 7e+00]
Found heuristic solution: objective 157226
Presolve removed 1098 rows and 20942 columns
Presolve time: 1.18s
Presolved: 1204 rows, 30573 columns, 61224 nonzeros

MIP start did not produce a new incumbent solution
MIP start violates constraint R0 by 339999.000000000

Variable types: 0 continuous, 30573 integer (30573 binary)

Root simplex log...

Iteration    Objective       Primal Inf.    Dual Inf.      Time
       0   -4.6737895e+05   7.222344e+02   0.000000e+00      9s
     821    4.3304343e+04   0.000000e+00   0.000000e+00      9s

Root relaxation: objective 4.330434e+04, 821 iterations, 0.03 seconds

    Nodes    |    Current Node    |     Objective Bounds      |     Work
 Expl Unexpl |  Obj  Depth IntInf | Incumbent    BestBd   Gap | It/Node Time

     0     0 43304.3426    0   14 157225.504 43304.3426  72.5%     -    9s
H    0     0                    43665.813405 43304.3426  0.83%     -   17s
     0     0 43310.3222    0   16 43665.8134 43310.3222  0.81%     -   17s
     0     0     cutoff    0      43665.8134 43665.8134  0.00%     -   18s

Cutting planes:
  Cover: 11
  Clique: 1127
  MIR: 12

Explored 0 nodes (1079 simplex iterations) in 18.03 seconds
Thread count was 4 (of 4 available processors)

Solution count 2: 43665.8 157226 
Pool objective bound 43665.8

Optimal solution found (tolerance 1.00e-04)
Best objective 4.366581340538e+04, best bound 4.366581340538e+04, gap 0.0000%

Gurobi 7.0.2 (win64) logging started 04/06/17 06:25:31

Changed value of parameter LogFile to log_prov_code_23.log
   Prev: gurobi.log  Default: 
Changed value of parameter LazyConstraints to 1
   Prev: 0  Min: 0  Max: 1  Default: 0
Optimize a model with 2302 rows, 51515 columns and 103464 nonzeros
Variable types: 0 continuous, 51515 integer (51515 binary)
Coefficient statistics:
  Matrix range     [1e+00, 1e+05]
  Objective range  [3e-01, 3e+02]
  Bounds range     [1e+00, 1e+00]
  RHS range        [1e+00, 7e+00]
Found heuristic solution: objective 157226
Presolve removed 1098 rows and 20942 columns
Presolve time: 1.27s
Presolved: 1204 rows, 30573 columns, 61224 nonzeros

MIP start did not produce a new incumbent solution
MIP start violates constraint R0 by 339999.000000000

Variable types: 0 continuous, 30573 integer (30573 binary)

Root simplex log...

Iteration    Objective       Primal Inf.    Dual Inf.      Time
       0   -4.6737895e+05   7.222344e+02   0.000000e+00     10s
     816    4.3304343e+04   1.397870e-02   0.000000e+00     10s
     821    4.3304343e+04   0.000000e+00   0.000000e+00     10s

Root relaxation: objective 4.330434e+04, 821 iterations, 0.03 seconds

    Nodes    |    Current Node    |     Objective Bounds      |     Work
 Expl Unexpl |  Obj  Depth IntInf | Incumbent    BestBd   Gap | It/Node Time

     0     0 43304.3426    0   14 157225.504 43304.3426  72.5%     -   10s
H    0     0                    43665.813405 43304.3426  0.83%     -   19s
     0     0 43310.3222    0   16 43665.8134 43310.3222  0.81%     -   19s
     0     0     cutoff    0      43665.8134 43665.8134  0.00%     -   19s

Cutting planes:
  Cover: 11
  Clique: 1127
  MIR: 12

Explored 0 nodes (1079 simplex iterations) in 19.49 seconds
Thread count was 4 (of 4 available processors)

Solution count 2: 43665.8 157226 
Pool objective bound 43665.8

Optimal solution found (tolerance 1.00e-04)
Best objective 4.366581340538e+04, best bound 4.366581340538e+04, gap 0.0000%

Gurobi 7.0.2 (win64) logging started 04/06/17 06:50:27

Changed value of parameter LogFile to log_prov_code_23.log
   Prev: gurobi.log  Default: 
Changed value of parameter LazyConstraints to 1
   Prev: 0  Min: 0  Max: 1  Default: 0
Optimize a model with 2302 rows, 51515 columns and 103464 nonzeros
Variable types: 0 continuous, 51515 integer (51515 binary)
Coefficient statistics:
  Matrix range     [1e+00, 1e+05]
  Objective range  [3e-01, 3e+02]
  Bounds range     [1e+00, 1e+00]
  RHS range        [1e+00, 7e+00]
Found heuristic solution: objective 157226
Presolve removed 1098 rows and 20942 columns
Presolve time: 1.15s
Presolved: 1204 rows, 30573 columns, 61224 nonzeros

MIP start did not produce a new incumbent solution
MIP start violates constraint R0 by 339999.000000000

Variable types: 0 continuous, 30573 integer (30573 binary)

Root simplex log...

Iteration    Objective       Primal Inf.    Dual Inf.      Time
       0   -4.6737895e+05   7.222344e+02   0.000000e+00     11s
     821    4.3304343e+04   0.000000e+00   0.000000e+00     11s

Root relaxation: objective 4.330434e+04, 821 iterations, 0.03 seconds

    Nodes    |    Current Node    |     Objective Bounds      |     Work
 Expl Unexpl |  Obj  Depth IntInf | Incumbent    BestBd   Gap | It/Node Time

     0     0 43304.3426    0   14 157225.504 43304.3426  72.5%     -   11s
H    0     0                    43665.813405 43304.3426  0.83%     -   19s
     0     0 43310.3222    0   16 43665.8134 43310.3222  0.81%     -   19s
     0     0     cutoff    0      43665.8134 43665.8134  0.00%     -   19s

Cutting planes:
  Cover: 11
  Clique: 1127
  MIR: 12

Explored 0 nodes (1079 simplex iterations) in 19.81 seconds
Thread count was 4 (of 4 available processors)

Solution count 2: 43665.8 157226 
Pool objective bound 43665.8

Optimal solution found (tolerance 1.00e-04)
Best objective 4.366581340538e+04, best bound 4.366581340538e+04, gap 0.0000%

Gurobi 7.0.2 (win64) logging started 04/06/17 08:46:01

Changed value of parameter LogFile to log_prov_code_23.log
   Prev: gurobi.log  Default: 
Changed value of parameter LazyConstraints to 1
   Prev: 0  Min: 0  Max: 1  Default: 0
Optimize a model with 2302 rows, 51515 columns and 103464 nonzeros
Variable types: 0 continuous, 51515 integer (51515 binary)
Coefficient statistics:
  Matrix range     [1e+00, 1e+05]
  Objective range  [3e-01, 3e+02]
  Bounds range     [1e+00, 1e+00]
  RHS range        [1e+00, 7e+00]
Presolve removed 329 rows and 0 columns
Presolve time: 0.12s
Presolved: 1973 rows, 51515 columns, 103135 nonzeros

MIP start did not produce a new incumbent solution
MIP start violates constraint R0 by 339999.000000000

Variable types: 0 continuous, 51515 integer (51515 binary)
Found heuristic solution: objective 187657.49571
Found heuristic solution: objective 177167.21034

Root simplex log...

Iteration    Objective       Primal Inf.    Dual Inf.      Time
       0    0.0000000e+00   1.432000e+03   0.000000e+00     36s
    1463    4.3033819e+04   0.000000e+00   0.000000e+00     36s

Root relaxation: objective 4.303382e+04, 1463 iterations, 0.02 seconds

    Nodes    |    Current Node    |     Objective Bounds      |     Work
 Expl Unexpl |  Obj  Depth IntInf | Incumbent    BestBd   Gap | It/Node Time

     0     0 43033.8185    0   17 177167.210 43033.8185  75.7%     -   36s
Another try with MIP start
     0     0 43033.8185    0   17 177167.210 43033.8185  75.7%     -   55s
     0     0 43033.8185    0   17 177167.210 43033.8185  75.7%     -   74s
H    0     0                    65116.119268 43033.8185  33.9%     -   83s
     0     0 43374.9412    0   96 65116.1193 43374.9412  33.4%     -   83s
     0     0 43374.9412    0   96 65116.1193 43374.9412  33.4%     -   92s
     0     0 43610.4055    0  116 65116.1193 43610.4055  33.0%     -   92s
     0     0 43613.7562    0  115 65116.1193 43613.7562  33.0%     -  101s
     0     0 43631.6119    0  100 65116.1193 43631.6119  33.0%     -  101s
     0     0 43631.6119    0  100 65116.1193 43631.6119  33.0%     -  109s
     0     0 43631.6233    0  104 65116.1193 43631.6233  33.0%     -  109s
     0     0 43636.7427    0   98 65116.1193 43636.7427  33.0%     -  109s
     0     0 43636.7427    0   98 65116.1193 43636.7427  33.0%     -  119s
H    0     0                    43665.813405 43636.7427  0.07%     -  128s
     0     0 43649.2688    0  102 43665.8134 43649.2688  0.04%     -  128s
     0     0 43649.2688    0   15 43665.8134 43649.2688  0.04%     -  128s
     0     0     cutoff    0      43665.8134 43665.8134  0.00%     -  128s

Cutting planes:
  Clique: 64
  MIR: 1
  Zero half: 1

Explored 0 nodes (2671 simplex iterations) in 128.34 seconds
Thread count was 4 (of 4 available processors)

Solution count 4: 43665.8 65116.1 177167 187657 
Pool objective bound 43665.8

Optimal solution found (tolerance 1.00e-04)
Best objective 4.366581340538e+04, best bound 4.366581340538e+04, gap 0.0000%
